Normalized Data/p01_30_normalized_splitx10_0.vrp
NAME:p01_30_NORMALIZED_splitx10_
BEST_KNOWN: 0
COMMENT: 0
DIMENSION: 220
CAPACITY: 1000
EDGE_WEIGHT_FORMAT: FUNCTION
EDGE_WEIGHT_TYPE: EXACT_2D
NODE_COORD_SECTION
1 0.00000 0.00000
2 28 33
3 28 33
4 28 33
5 28 33
6 28 33
7 28 33
8 28 33
9 -3 3
10 -3 3
11 -3 3
12 -3 3
13 -17 1
14 -17 1
15 -17 1
16 -17 1
17 -17 1
18 -17 1
19 8 45
20 8 45
21 8 45
22 -33 3
23 -33 3
24 -33 3
25 -33 3
26 -33 3
27 -33 3
28 -49 -5
29 -49 -5
30 -49 -5
31 -49 -5
32 19 -22
33 4 29
34 4 29
35 49 -46
36 49 -46
37 49 -46
38 49 -46
39 49 -46
40 49 -46
41 -8 -9
42 -8 -9
43 -35 19
44 -35 19
45 -35 19
46 -35 19
47 -35 19
48 45 42
49 45 42
50 45 42
51 45 42
52 45 42
53 45 42
54 13 6
55 13 6
56 13 6
57 13 6
58 13 6
59 39 -27
60 39 -27
61 39 -27
62 39 -27
63 38 30
64 38 30
65 38 30
66 38 30
67 38 30
68 -26 36
69 -26 36
70 -26 36
71 -26 36
72 -26 36
73 29 31
74 29 31
75 29 31
76 29 31
77 29 31
78 29 31
79 -38 36
80 -38 36
81 -38 36
82 -38 36
83 -38 36
84 2 6
85 2 6
86 2 6
87 2 6
88 2 6
89 2 6
90 -9 49
91 -9 49
92 -9 49
93 -9 49
94 -9 49
95 -9 49
96 -22 34
97 -22 34
98 -22 34
99 -22 34
100 -22 34
101 -22 34
102 -5 -14
103 -5 -14
104 -5 -14
105 -5 -14
106 -5 -14
107 -5 -14
108 43 -50
109 43 -50
110 43 -50
111 43 -50
112 43 -50
113 23 32
114 23 32
115 23 32
116 23 32
117 23 32
118 20 -7
119 20 -7
120 20 -7
121 -13 32
122 -13 32
123 -13 32
124 -13 32
125 -13 32
126 33 -16
127 33 -16
128 20 34
129 20 34
130 20 34
131 20 34
132 -35 -44
133 -35 -44
134 -35 -44
135 -35 -44
136 -16 48
137 -16 48
138 -16 48
139 -16 48
140 -16 48
141 -16 48
142 30 -44
143 30 -44
144 30 -44
145 30 -44
146 30 -44
147 34 -34
148 34 -34
149 42 -13
150 42 -13
151 42 -13
152 42 -13
153 -22 45
154 -22 45
155 -22 45
156 22 9
157 22 9
158 22 9
159 -2 0
160 -2 0
161 -2 0
162 -2 0
163 -2 0
164 -2 0
165 6 -50
166 6 -50
167 6 -50
168 6 -50
169 6 -50
170 36 30
171 36 30
172 36 30
173 36 30
174 -47 31
175 -47 31
176 -47 31
177 -47 31
178 -47 31
179 -23 -43
180 -23 -43
181 -23 -13
182 -23 -13
183 25 42
184 25 42
185 25 42
186 25 42
187 25 42
188 25 42
189 29 44
190 29 44
191 29 44
192 29 44
193 29 44
194 29 44
195 11 -25
196 11 -25
197 11 -25
198 -1 -36
199 -1 -36
200 6 -2
201 6 -2
202 6 -2
203 -8 13
204 -8 13
205 -8 13
206 -8 13
207 -8 13
208 -28 38
209 -28 38
210 -28 38
211 30 -40
212 30 -40
213 30 -40
214 30 -40
215 30 -40
216 30 -40
217 36 -35
218 36 -35
219 36 -35
220 36 -35
DEMAND_SECTION
1 0
2 200
3 100
4 50
5 10
6 10
7 10
8 10
9 200
10 200
11 50
12 10
13 200
14 200
15 50
16 10
17 10
18 10
19 100
20 50
21 10
22 100
23 50
24 10
25 10
26 10
27 10
28 200
29 100
30 10
31 10
32 200
33 100
34 50
35 100
36 50
37 10
38 10
39 10
40 10
41 100
42 50
43 200
44 200
45 10
46 10
47 10
48 200
49 100
50 50
51 10
52 10
53 10
54 200
55 200
56 10
57 10
58 10
59 200
60 100
61 50
62 10
63 200
64 200
65 10
66 10
67 10
68 100
69 50
70 10
71 10
72 10
73 200
74 200
75 50
76 10
77 10
78 10
79 200
80 100
81 10
82 10
83 10
84 200
85 50
86 10
87 10
88 10
89 10
90 200
91 200
92 50
93 10
94 10
95 10
96 100
97 50
98 10
99 10
100 10
101 10
102 200
103 200
104 10
105 10
106 10
107 10
108 200
109 50
110 10
111 10
112 10
113 200
114 50
115 10
116 10
117 10
118 200
119 50
120 10
121 200
122 200
123 10
124 10
125 10
126 200
127 50
128 100
129 50
130 10
131 10
132 200
133 100
134 10
135 10
136 200
137 100
138 50
139 10
140 10
141 10
142 200
143 10
144 10
145 10
146 10
147 200
148 100
149 100
150 10
151 10
152 10
153 200
154 200
155 10
156 100
157 50
158 10
159 200
160 200
161 10
162 10
163 10
164 10
165 100
166 50
167 10
168 10
169 10
170 200
171 100
172 50
173 10
174 100
175 50
176 10
177 10
178 10
179 200
180 200
181 200
182 10
183 200
184 50
185 10
186 10
187 10
188 10
189 200
190 50
191 10
192 10
193 10
194 10
195 100
196 50
197 10
198 200
199 200
200 100
201 10
202 10
203 200
204 100
205 10
206 10
207 10
208 200
209 100
210 50
211 100
212 50
213 10
214 10
215 10
216 10
217 200
218 100
219 50
220 10
DEPOT_SECTION
1
-1
EOF