Normalized Data/p01_30_normalized_splitx10_0.sol
219 -10 8 11 9 158 162 159 161 160 163 -16 15 14 17 12 13 40 41 -22 23 25 21 24 26 30 28 27 29 43 42 44 46 45 -31 216 218 217 219 146 147 195 196 -32 33 139 140 138 137 136 135 154 153 152 -37 34 36 39 35 38 107 111 109 110 108 143 142 145 144 141 214 215 211 212 213 210 194 -49 52 50 47 48 51 191 190 193 189 188 192 187 186 182 184 185 183 129 -57 55 56 157 156 155 66 64 63 62 65 169 171 172 170 -74 77 73 76 75 72 4 7 6 3 5 2 1 115 113 114 116 -88 87 85 84 86 83 53 54 199 200 201 -89 90 94 93 92 91 20 19 18 127 128 130 112 -101 102 103 105 197 198 164 165 167 168 166 -106 104 178 179 131 134 133 132 180 181 -117 119 118 151 150 148 149 60 58 59 61 125 126 -122 124 123 120 121 98 99 95 96 70 69 68 71 67 206 202 204 -174 173 175 177 176 82 78 81 79 80 207 208 209 97 100 203 205 0 





OBJ=
1562.012
BEST_KNOWN=
0.000